data;


param d:= 100;
param r:=5;
param p:=0.700000;
param M:=1000;
param U:=
         1         1       -1.184420e-01
         2         1       -9.125904e-01
         3         1        2.200245e-01
         4         1        6.142865e-01
         5         1        1.921242e+00
         6         1        9.719927e-02
         7         1       -5.494558e-02
         8         1        6.755872e-01
         9         1       -4.949615e-01
        10         1        3.218731e-01
        11         1        3.086992e-01
        12         1       -1.374584e+00
        13         1       -2.514101e-01
        14         1        9.655983e-01
        15         1        1.199486e-02
        16         1        1.711128e-01
        17         1       -9.773081e-02
        18         1       -4.545742e-01
        19         1        2.517381e+00
        20         1        3.656368e-01
        21         1        1.037713e+00
        22         1        1.300769e+00
        23         1        5.419665e-02
        24         1       -4.555601e-01
        25         1        4.602380e-01
        26         1       -1.488411e+00
        27         1        5.010266e-02
        28         1        2.254193e+00
        29         1       -7.786616e-02
        30         1       -1.477786e+00
        31         1        8.788953e-01
        32         1       -1.961144e+00
        33         1        6.504433e-02
        34         1       -1.121912e+00
        35         1       -8.126756e-01
        36         1        3.834385e-01
        37         1        4.389681e-01
        38         1       -2.716061e-02
        39         1       -9.878671e-01
        40         1       -2.089479e+00
        41         1        1.393923e+00
        42         1        7.453305e-01
        43         1        1.355383e+00
        44         1        3.615909e-01
        45         1       -7.310566e-01
        46         1       -6.656325e-01
        47         1       -6.287936e-01
        48         1       -7.037970e-01
        49         1       -7.943360e-01
        50         1       -1.124962e+00
        51         1        2.636978e-01
        52         1       -1.632097e+00
        53         1       -7.945195e-01
        54         1       -2.061249e-01
        55         1       -8.758000e-01
        56         1       -1.563109e+00
        57         1        1.251017e-01
        58         1       -8.067419e-01
        59         1       -1.835754e-02
        60         1        4.641108e-01
        61         1        2.534724e-01
        62         1        1.763384e+00
        63         1       -2.691442e-02
        64         1        9.908110e-01
        65         1       -1.901863e-01
        66         1       -8.880582e-01
        67         1       -2.752682e-02
        68         1        5.765708e-01
        69         1        2.536866e+00
        70         1        1.517973e+00
        71         1       -1.420450e+00
        72         1       -1.737824e+00
        73         1        4.794289e-01
        74         1       -7.558488e-01
        75         1        2.769760e-01
        76         1       -9.430964e-01
        77         1        7.995336e-01
        78         1       -2.008266e-01
        79         1        1.368880e-01
        80         1       -1.179566e-02
        81         1       -1.426434e+00
        82         1       -6.963629e-01
        83         1       -2.080647e+00
        84         1       -1.317305e+00
        85         1       -2.522762e-01
        86         1        3.785132e-02
        87         1       -6.325521e-01
        88         1       -2.290411e+00
        89         1        8.954819e-01
        90         1       -8.059394e-01
        91         1       -1.015795e+00
        92         1        1.427411e+00
        93         1       -3.765543e-01
        94         1       -7.234843e-01
        95         1       -8.509759e-01
        96         1       -5.030349e-02
        97         1        1.308687e+00
        98         1       -8.240997e-01
        99         1        4.154418e-01
       100         1        3.018538e-01
         1         2       -5.038440e-01
         2         2       -7.390593e-01
         3         2        4.709988e-01
         4         2       -3.409913e-01
         5         2       -1.723603e+00
         6         2        2.229202e-01
         7         2        7.862894e-02
         8         2        2.540203e-01
         9         2        1.650883e+00
        10         2        1.885619e+00
        11         2       -3.844662e-01
        12         2       -4.863814e-01
        13         2        7.009651e-01
        14         2        2.884015e-01
        15         2        3.237431e-01
        16         2        1.877302e-01
        17         2       -8.504501e-01
        18         2       -1.461080e-02
        19         2       -3.444563e-02
        20         2       -1.709696e+00
        21         2        5.628019e-01
        22         2       -2.177642e+00
        23         2       -3.319110e-01
        24         2       -1.514943e+00
        25         2        1.859675e-01
        26         2        6.333813e-01
        27         2        3.923112e-01
        28         2       -9.566080e-01
        29         2        2.536349e-01
        30         2       -6.211038e-01
        31         2       -2.714274e-01
        32         2        8.716358e-01
        33         2        4.725668e-01
        34         2       -3.254370e-01
        35         2        5.133865e-01
        36         2       -3.422585e-01
        37         2        4.930364e-01
        38         2        1.677645e+00
        39         2       -1.138186e+00
        40         2        2.083352e+00
        41         2        1.949869e+00
        42         2       -1.700107e+00
        43         2        1.160188e+00
        44         2       -3.167479e-01
        45         2       -2.858682e-01
        46         2       -3.864004e-01
        47         2        2.151897e-01
        48         2       -3.399252e-01
        49         2        6.340877e-01
        50         2       -3.659551e-01
        51         2       -1.189119e-02
        52         2       -1.303173e-01
        53         2        2.858798e+00
        54         2        6.861886e-01
        55         2       -1.047094e+00
        56         2       -5.491103e-01
        57         2       -1.069961e+00
        58         2        5.564667e-01
        59         2        2.242824e-01
        60         2        5.902110e-01
        61         2       -8.873122e-01
        62         2       -2.171310e+00
        63         2       -1.719142e+00
        64         2        6.718612e-01
        65         2        1.294268e+00
        66         2        1.822020e+00
        67         2        1.549308e+00
        68         2       -3.221898e-01
        69         2        1.462101e+00
        70         2        6.020646e-01
        71         2       -1.359538e+00
        72         2        8.947725e-01
        73         2       -8.732714e-01
        74         2       -7.031970e-01
        75         2       -1.047584e-01
        76         2       -5.150023e-01
        77         2       -3.593830e-01
        78         2       -1.130148e+00
        79         2       -8.284189e-02
        80         2        1.365534e+00
        81         2        3.392358e-01
        82         2       -3.972782e-01
        83         2       -2.623161e-01
        84         2       -7.242937e-01
        85         2        5.051179e-01
        86         2        1.586138e+00
        87         2       -5.063360e-01
        88         2       -5.136289e-01
        89         2       -1.223057e-01
        90         2       -6.167736e-02
        91         2        2.677241e-01
        92         2       -8.333211e-02
        93         2       -9.076059e-01
        94         2        6.753770e-01
        95         2       -7.274333e-01
        96         2        4.411037e-01
        97         2       -4.728263e-01
        98         2        2.265411e+00
        99         2       -1.371634e+00
       100         2       -1.221636e+00
         1         3       -1.314123e+00
         2         3        6.107494e-02
         3         3        7.422150e-01
         4         3        8.535754e-01
         5         3        5.425993e-01
         6         3        9.208707e-01
         7         3       -7.264789e-02
         8         3       -5.947827e-01
         9         3       -4.712211e-01
        10         3       -1.318263e+00
        11         3       -9.249722e-01
        12         3       -1.435571e+00
        13         3        1.503074e+00
        14         3       -3.289109e-01
        15         3        1.592697e-01
        16         3       -4.860235e-01
        17         3       -1.650913e+00
        18         3       -1.421384e-01
        19         3       -1.862202e+00
        20         3        1.793282e+00
        21         3        9.430132e-02
        22         3        2.241234e+00
        23         3        1.279886e+00
        24         3        4.529044e-02
        25         3        7.702827e-01
        26         3       -4.322421e-01
        27         3       -1.306029e+00
        28         3       -5.068282e-01
        29         3        8.264560e-01
        30         3        9.737735e-01
        31         3       -4.776978e-02
        32         3       -1.153612e+00
        33         3        7.661164e-01
        34         3       -1.537544e+00
        35         3       -3.042292e-01
        36         3       -1.703493e+00
        37         3       -7.159227e-01
        38         3       -1.642002e+00
        39         3       -5.106347e-01
        40         3        4.316547e-01
        41         3        8.559329e-01
        42         3       -1.932703e+00
        43         3        4.296604e-01
        44         3       -6.170548e-02
        45         3        1.729380e+00
        46         3       -3.134707e-01
        47         3       -1.276456e+00
        48         3        4.472730e-01
        49         3        1.222066e+00
        50         3        1.181600e+00
        51         3        1.919551e+00
        52         3       -1.359174e+00
        53         3       -8.734468e-01
        54         3        7.580245e-01
        55         3        4.823980e-01
        56         3       -2.733622e-01
        57         3        4.513070e-01
        58         3        1.837996e-01
        59         3        4.467511e-01
        60         3        9.104666e-01
        61         3       -1.027456e+00
        62         3       -3.879180e-01
        63         3        1.732387e+00
        64         3       -8.016876e-01
        65         3        9.669517e-01
        66         3       -2.224707e-01
        67         3       -2.912490e+00
        68         3        1.476394e-01
        69         3       -2.025697e-01
        70         3        2.221251e-01
        71         3       -7.450768e-01
        72         3        7.512900e-01
        73         3        9.705183e-01
        74         3        4.889269e-02
        75         3        5.011715e-01
        76         3        1.364131e+00
        77         3        3.499823e-01
        78         3       -9.768112e-01
        79         3       -3.878645e-01
        80         3        1.273119e+00
        81         3        1.269759e+00
        82         3       -7.476799e-01
        83         3       -3.197972e-01
        84         3       -1.562108e+00
        85         3        6.135798e-01
        86         3        1.898393e+00
        87         3       -3.866883e-01
        88         3        1.156852e+00
        89         3       -6.071464e-01
        90         3        1.136634e+00
        91         3        5.267365e-01
        92         3        2.186284e+00
        93         3       -4.802367e-01
        94         3        2.212908e+00
        95         3       -5.278288e-01
        96         3       -1.686892e-01
        97         3        4.394887e-01
        98         3       -3.739995e-01
        99         3       -3.177724e-01
       100         3        7.616047e-01
         1         4        1.305282e+00
         2         4       -1.138604e+00
         3         4        5.059729e-01
         4         4       -1.404957e+00
         5         4        2.504257e+00
         6         4        1.763906e+00
         7         4       -2.039749e-01
         8         4        6.687208e-01
         9         4       -8.426417e-01
        10         4        8.988970e-01
        11         4        5.361108e-01
        12         4        1.510153e+00
        13         4        2.172280e-01
        14         4       -2.265900e-01
        15         4       -9.816794e-02
        16         4        6.652817e-01
        17         4        3.255126e-01
        18         4        1.849374e+00
        19         4        3.317424e-01
        20         4        9.306236e-01
        21         4        1.231346e-01
        22         4        7.639684e-01
        23         4        6.576658e-02
        24         4        1.136549e+00
        25         4       -1.733972e-01
        26         4       -3.637127e-01
        27         4        7.088103e-01
        28         4       -7.011126e-01
        29         4       -6.709301e-01
        30         4       -4.881388e-01
        31         4        7.359062e-01
        32         4       -6.399353e-01
        33         4        7.915299e-01
        34         4       -5.788804e-03
        35         4       -1.355458e-01
        36         4        2.213451e-01
        37         4        1.919298e-01
        38         4       -6.452622e-01
        39         4       -7.388124e-01
        40         4       -1.037466e-01
        41         4       -1.680167e+00
        42         4       -5.186030e-02
        43         4       -4.701713e-01
        44         4       -8.911495e-01
        45         4       -1.815878e-01
        46         4        9.670581e-01
        47         4        9.035743e-01
        48         4       -1.000191e+00
        49         4       -4.393029e-01
        50         4       -8.039556e-01
        51         4       -9.809907e-01
        52         4        3.866571e-02
        53         4        1.281515e+00
        54         4       -3.884615e-01
        55         4       -1.937826e+00
        56         4        7.083797e-01
        57         4       -6.640259e-01
        58         4        6.469958e-01
        59         4       -2.253853e-01
        60         4       -3.897756e-02
        61         4        8.178584e-01
        62         4       -6.255129e-01
        63         4        1.386474e+00
        64         4        2.675250e-01
        65         4        1.034706e-01
        66         4       -3.770122e-01
        67         4        1.258242e+00
        68         4        1.907469e-01
        69         4        4.637579e-01
        70         4       -2.102371e-01
        71         4        5.358738e-01
        72         4       -1.205419e+00
        73         4        5.567201e-01
        74         4        7.118612e-01
        75         4       -2.452815e-01
        76         4        8.887529e-01
        77         4        5.691577e-01
        78         4        5.440422e-01
        79         4        3.018496e-01
        80         4        8.109765e-03
        81         4       -9.251967e-01
        82         4       -5.459342e-01
        83         4        8.305353e-01
        84         4        2.749092e-01
        85         4       -1.718747e+00
        86         4       -6.418845e-02
        87         4        1.049802e+00
        88         4       -6.105069e-01
        89         4        1.528145e+00
        90         4       -6.188033e-01
        91         4        2.785724e-01
        92         4        1.248000e-01
        93         4        4.058769e-01
        94         4        3.902582e-01
        95         4       -8.124937e-01
        96         4        3.856426e-02
        97         4       -7.790452e-01
        98         4        6.331728e-01
        99         4       -1.611509e+00
       100         4        8.156739e-01
         1         5        5.848886e-01
         2         5       -1.607322e+00
         3         5        3.202026e-01
         4         5       -3.112442e+00
         5         5       -1.806203e+00
         6         5        9.153028e-01
         7         5        1.985660e+00
         8         5        2.692766e-01
         9         5        1.326691e+00
        10         5       -2.483265e-01
        11         5       -6.445234e-01
        12         5        1.277608e+00
        13         5        1.490125e-01
        14         5       -1.003133e+00
        15         5        1.963772e-01
        16         5       -4.076842e-01
        17         5        1.105280e+00
        18         5        4.166688e-01
        19         5       -3.095547e-02
        20         5       -1.074281e-01
        21         5        9.169867e-01
        22         5       -9.646292e-01
        23         5        8.447397e-01
        24         5       -1.282217e+00
        25         5        5.380726e-01
        26         5        2.085548e-02
        27         5       -6.492288e-01
        28         5        1.050300e+00
        29         5        1.747119e-01
        30         5        8.533097e-01
        31         5       -6.468305e-01
        32         5        7.480832e-01
        33         5        8.670998e-01
        34         5        3.895769e-01
        35         5       -1.902915e-01
        36         5       -6.803524e-01
        37         5       -1.036376e+00
        38         5        4.919953e-01
        39         5        6.576664e-02
        40         5       -5.411566e-01
        41         5        1.424283e+00
        42         5        5.393783e-01
        43         5       -1.439611e+00
        44         5       -1.354877e-01
        45         5       -1.416732e-01
        46         5        8.465206e-01
        47         5        3.551384e-01
        48         5       -1.840302e+00
        49         5       -8.348087e-01
        50         5        5.433766e-01
        51         5       -1.401554e+00
        52         5       -1.243351e+00
        53         5       -1.035913e+00
        54         5        1.731487e+00
        55         5       -7.199966e-01
        56         5        1.936782e+00
        57         5        1.086489e+00
        58         5        5.784573e-01
        59         5       -4.291052e-01
        60         5        5.008662e-02
        61         5        1.394893e+00
        62         5       -2.277706e-01
        63         5       -6.933735e-01
        64         5       -1.167141e+00
        65         5       -1.243371e+00
        66         5        1.997460e-01
        67         5        3.713243e-01
        68         5       -7.220526e-02
        69         5        6.751038e-01
        70         5       -9.176924e-02
        71         5        1.084193e+00
        72         5        1.053004e+00
        73         5       -7.581495e-01
        74         5       -5.504534e-01
        75         5       -3.150331e-01
        76         5       -2.999726e-01
        77         5       -1.525612e+00
        78         5       -1.353243e+00
        79         5       -8.451889e-01
        80         5       -1.489397e+00
        81         5       -8.888871e-01
        82         5       -7.537487e-02
        83         5       -9.200251e-01
        84         5        1.982312e-01
        85         5       -4.071958e-01
        86         5        9.414781e-01
        87         5       -1.150392e+00
        88         5        8.688698e-01
        89         5       -6.582923e-02
        90         5        5.459967e-01
        91         5        1.422569e+00
        92         5       -1.142532e+00
        93         5       -1.223237e+00
        94         5        4.246270e-01
        95         5       -2.124648e+00
        96         5        3.560359e-01
        97         5        1.194735e+00
        98         5       -1.988546e-01
        99         5       -7.417692e-01
       100         5        1.390067e+00
;

param theta:=
    1        4.418307e-01
    2        4.113782e-01
    3        6.578080e-01
    4        1.846971e+00
    5       -1.341086e-01
;
param X_true:=
    1        1.208337e+00
    2       -2.554480e+00
    3        1.670782e+00
    4       -1.484887e+00
    5        5.364254e+00
    6        3.875538e+00
    7       -6.827484e-01
    8        1.210736e+00
    9       -1.583780e+00
   10        1.744291e+00
   11        4.463946e-01
   12        8.661204e-01
   13        1.547245e+00
   14        4.493650e-02
   15        3.560032e-02
   16        1.116550e+00
   17       -1.026036e+00
   18        3.059505e+00
   19        4.899844e-01
   20        2.371094e+00
   21        8.565002e-01
   22        2.693579e+00
   23        7.375059e-01
   24        1.476427e+00
   25        3.941287e-01
   26       -1.355962e+00
   27        7.206275e-01
   28       -1.166740e+00
   29       -6.490329e-01
   30       -1.283898e+00
   31        1.691183e+00
   32       -2.549043e+00
   33        2.072747e+00
   34       -1.703919e+00
   35       -5.728228e-01
   36       -5.918954e-01
   37        4.193099e-01
   38       -1.659737e+00
   39       -2.613979e+00
   40        9.875236e-02
   41       -1.313176e+00
   42       -1.809544e+00
   43        6.834318e-01
   44       -1.638888e+00
   45        3.806093e-01
   46        1.013345e+00
   47        5.922891e-01
   48       -1.757100e+00
   49        1.434833e-02
   50       -1.428076e+00
   51       -2.495865e-01
   52       -1.430637e+00
   53        2.756290e+00
   54       -2.598389e-01
   55       -3.982932e+00
   56       -4.772399e-02
   57       -1.460155e+00
   58        1.110786e+00
   59        1.929715e-02
   60        9.680631e-01
   61        3.945955e-01
   62       -1.494046e+00
   63        3.074233e+00
   64        8.374376e-01
   65        1.442326e+00
   66       -5.122932e-01
   67        9.834675e-01
   68        5.813105e-01
   69        2.355100e+00
   70        6.884842e-01
   71       -8.326566e-01
   72       -2.273119e+00
   73        1.620916e+00
   74        7.975320e-01
   75       -1.823240e-03
   76        1.950516e+00
   77        1.691452e+00
   78       -9.892367e-03
   79        4.421160e-01
   80        1.608727e+00
   81       -1.245034e+00
   82       -1.961152e+00
   83        4.197872e-01
   84       -1.426387e+00
   85       -2.619918e+00
   86        1.673190e+00
   87        1.351088e+00
   88       -1.706394e+00
   89        2.777219e+00
   90       -8.499085e-01
   91        3.315540e-01
   92        2.418273e+00
   93        5.804310e-02
   94        2.077696e+00
   95       -2.238166e+00
   96        7.174928e-02
   97       -9.262909e-01
   98        1.517928e+00
   99       -3.466670e+00
  100        1.451909e+00
;
param X:=
    1        5.421568e-01
    2       -1.519135e+00
    3       -8.752902e-01
    4       -7.888760e-01
    5       -5.716019e-02
    6       -1.883191e-01
    7        5.061415e-01
    8        6.326480e-01
    9       -9.103645e-01
   10        5.151387e-01
   11       -2.482231e-01
   12       -1.283885e+00
   13        6.897529e-01
   14       -2.161234e-01
   15       -9.631879e-01
   16       -1.247523e+00
   17       -1.026036e+00
   18        7.267607e-01
   19        6.733363e-01
   20       -1.473325e-02
   21        3.944464e-02
   22        2.693579e+00
   23       -1.142404e-01
   24       -9.791241e-02
   25        3.941287e-01
   26       -1.355962e+00
   27        7.206275e-01
   28        1.736420e+00
   29       -1.043208e+00
   30       -1.283898e+00
   31        1.691183e+00
   32        1.691872e+00
   33        3.198136e-01
   34       -2.701197e+00
   35        7.438874e-01
   36       -5.918954e-01
   37        4.193099e-01
   38        4.347022e-01
   39        6.714896e-01
   40       -2.264360e-01
   41       -1.313176e+00
   42       -1.809544e+00
   43        6.834318e-01
   44       -1.638888e+00
   45        3.806093e-01
   46        2.160748e-01
   47        5.922891e-01
   48       -1.389551e-01
   49        8.921231e-01
   50        9.991074e-01
   51        1.749906e+00
   52       -1.638168e-01
   53        6.014785e-01
   54       -2.532931e-01
   55       -3.982932e+00
   56        5.395541e-01
   57       -1.460155e+00
   58       -1.482740e+00
   59       -5.520646e-01
   60        9.068486e-02
   61        9.539401e-01
   62       -8.735551e-01
   63       -1.493644e+00
   64       -1.851497e+00
   65       -2.647060e+00
   66       -5.122932e-01
   67        9.834675e-01
   68        3.973531e-02
   69        1.053247e+00
   70        4.983869e-01
   71       -1.186156e+00
   72       -2.615589e-01
   73        7.315067e-01
   74       -2.002258e+00
   75       -6.957858e-01
   76        2.844333e-01
   77        7.181552e-02
   78       -1.252656e+00
   79       -2.201699e+00
   80        1.608727e+00
   81       -1.245034e+00
   82       -1.961152e+00
   83        1.167839e+00
   84       -5.476433e-03
   85       -6.221693e-01
   86        1.474710e+00
   87        2.865648e-01
   88       -1.706394e+00
   89       -1.392871e+00
   90       -8.499085e-01
   91        3.315540e-01
   92        6.754963e-01
   93       -6.661190e-02
   94        2.077696e+00
   95        1.876434e+00
   96        7.174928e-02
   97       -9.262909e-01
   98        1.516708e-01
   99       -3.466670e+00
  100        1.451909e+00
;
param outliervec:=
    1    1
    2    1
    3    1
    4    1
    5    1
    6    1
    7    1
    8    1
    9    1
   10    1
   11    1
   12    1
   13    1
   14    1
   15    1
   16    1
   17    0
   18    1
   19    1
   20    1
   21    1
   22    0
   23    1
   24    1
   25    0
   26    0
   27    0
   28    1
   29    1
   30    0
   31    0
   32    1
   33    1
   34    1
   35    1
   36    0
   37    0
   38    1
   39    1
   40    1
   41    0
   42    0
   43    0
   44    0
   45    0
   46    1
   47    0
   48    1
   49    1
   50    1
   51    1
   52    1
   53    1
   54    1
   55    0
   56    1
   57    0
   58    1
   59    1
   60    1
   61    1
   62    1
   63    1
   64    1
   65    1
   66    0
   67    0
   68    1
   69    1
   70    1
   71    1
   72    1
   73    1
   74    1
   75    1
   76    1
   77    1
   78    1
   79    1
   80    0
   81    0
   82    0
   83    1
   84    1
   85    1
   86    1
   87    1
   88    0
   89    1
   90    0
   91    0
   92    1
   93    1
   94    0
   95    1
   96    0
   97    0
   98    1
   99    0
  100    0
;